c instance by G2
c solution = 11011101101001111111100
c Known solution cost is 984 
p cnf 23 30
w 60 33 19 73 10 44 91 17 69 16 4 69 52 29 33 1 48 67 70 71 20 27 61
3 10 2 0
-12 -9 -4 0
-15 -22 16 0
-15 20 -11 0
-18 -9 -13 0
-3 -16 -9 0
-18 8 10 0
-7 -9 -20 0
-23 -16 -17 0
19 23 -2 0
-11 -1 18 0
15 -14 -16 0
-21 10 -7 0
4 -21 12 0
-13 -21 10 0
14 -17 -2 0
23 3 16 0
13 -16 -10 0
-20 9 -14 0
-2 -23 13 0
5 -14 -17 0
-11 -22 -5 0
17 -19 -14 0
6 -1 -14 0
1 -15 -4 0
20 -6 -19 0
-8 -14 -7 0
7 3 4 0
21 -4 22 0
-19 11 -21 0
